branch-and-cut/resultados/I080/i080-135.sol
2102
10
2 4
1 2
62 39
28 39
5 39
28 6
6 7
3 28
4 62
28 8
